59, 206
136, 78
503, 91
158, 95
477, 43
507, 31
239, 60
412, 16
248, 13
166, 94
154, 50
60, 83
493, 35
367, 67
156, 52
201, 25
215, 21
174, 95
514, 23
84, 34
92, 21
107, 42
339, 74
367, 36
301, 79
265, 16
363, 24
402, 65
289, 67
123, 98
447, 72
421, 82
165, 27
538, 7
412, 53
55, 87
120, 19
422, 88
374, 84
537, 69
258, 39
370, 77
301, 44
347, 9
498, 76
379, 84
522, 80
445, 70
228, 6
141, 1
507, 58
194, 1
307, 42
309, 42
115, 75
52, 93
515, 15
396, 69
141, 59
92, 73